c FILE: DSJC250.5
c
c SOURCE: David Johnson (dsj@research.att.com)
c
c DESCRIPTION: Random graph used in the paper
c              "Optimization by Simulated Annealing: An
c               Experimental Evaluation; Part II, Graph
c               Coloring and Number Partitioning" by
c              David S. Johnson, Cecilia R. Aragon, 
c              Lyle A. McGeoch and Catherine Schevon
c              Operations Research, 39, 378-406 (1991)
c
p edge 25 154
e 2 1
e 3 2
e 5 2
e 5 4
e 6 1
e 6 2
e 7 1
e 7 3
e 7 4
e 8 1
e 8 2
e 8 3
e 8 6
e 8 7
e 9 2
e 9 3
e 9 5
e 9 7
e 10 2
e 10 3
e 10 4
e 10 6
e 10 7
e 10 9
e 11 1
e 11 3
e 11 9
e 12 2
e 12 3
e 12 4
e 12 5
e 12 6
e 12 8
e 12 10
e 12 11
e 13 1
e 13 2
e 13 4
e 13 5
e 13 7
e 13 8
e 13 9
e 13 10
e 13 11
e 13 12
e 14 1
e 14 2
e 14 4
e 14 5
e 14 6
e 14 8
e 14 10
e 15 1
e 15 3
e 15 8
e 15 9
e 15 10
e 15 11
e 15 12
e 15 13
e 16 3
e 16 4
e 16 7
e 16 8
e 16 10
e 16 11
e 16 12
e 16 14
e 16 15
e 17 4
e 17 5
e 17 6
e 17 7
e 17 11
e 17 13
e 17 15
e 17 16
e 18 4
e 18 7
e 18 8
e 18 9
e 18 14
e 18 16
e 18 17
e 19 2
e 19 6
e 19 7
e 19 12
e 19 18
e 20 1
e 20 2
e 20 3
e 20 4
e 20 10
e 20 12
e 20 13
e 20 14
e 21 2
e 21 7
e 21 10
e 21 11
e 21 12
e 21 13
e 21 14
e 21 16
e 21 17
e 21 18
e 22 1
e 22 2
e 22 7
e 22 8
e 22 11
e 22 13
e 22 14
e 22 16
e 22 17
e 22 18
e 23 1
e 23 2
e 23 3
e 23 4
e 23 5
e 23 7
e 23 8
e 23 10
e 23 11
e 23 12
e 23 13
e 23 14
e 23 17
e 23 18
e 23 21
e 24 1
e 24 2
e 24 3
e 24 5
e 24 6
e 24 8
e 24 10
e 24 12
e 24 15
e 24 18
e 24 20
e 24 21
e 25 4
e 25 5
e 25 8
e 25 9
e 25 11
e 25 16
e 25 17
e 25 19
e 25 21
e 25 23
